objective value:                                 4288
delta[0,0]*                                         9 	(obj:220)
delta[1,1]*                                         4 	(obj:577)
mu[0,0,28]*                         0.899729670174048 	(obj:0)
mu[0,0,40]*                         0.771085233541966 	(obj:0)
mu[1,1,43]*                         0.233938096236336 	(obj:0)
mu[0,0,44]*                         0.426147863957941 	(obj:0)
mu[0,0,46]*                          1.61376243723416 	(obj:0)
mu[0,0,52]*                          2.10032759532569 	(obj:0)
mu[1,1,57]*                          2.26097133367721 	(obj:0)
mu[0,0,58]*                         0.476104429238795 	(obj:0)
mu[1,1,63]*                          1.50509057008645 	(obj:0)
mu[0,0,83]*                          2.11561053334342 	(obj:0)
mu[0,0,84]*                         0.469655734316494 	(obj:0)
